Using license file /home/benedond/gurobi.lic
Using gurobi.env file
Set parameter Threads to value 1
Academic license - for non-commercial use only
Changed value of parameter TimeLimit to 300.0
   Prev: inf  Min: 0.0  Max: inf  Default: inf
Gurobi Optimizer version 9.0.1 build v9.0.1rc0 (linux64)
Optimize a model with 7828 rows, 7527 columns and 36969 nonzeros
Model fingerprint: 0x364043bd
Variable types: 120 continuous, 7407 integer (7407 binary)
Coefficient statistics:
  Matrix range     [2e-01, 5e+02]
  Objective range  [2e-03, 2e-01]
  Bounds range     [1e+00, 1e+00]
  RHS range        [1e+00, 3e+03]
Presolve removed 152 rows and 122 columns
Presolve time: 0.14s
Presolved: 7676 rows, 7405 columns, 36434 nonzeros
Variable types: 119 continuous, 7286 integer (7286 binary)

Root relaxation: objective 1.934346e+00, 6526 iterations, 0.46 seconds

    Nodes    |    Current Node    |     Objective Bounds      |     Work
 Expl Unexpl |  Obj  Depth IntInf | Incumbent    BestBd   Gap | It/Node Time

     0     0    1.93435    0  369          -    1.93435      -     -    0s
     0     0    2.06051    0  324          -    2.06051      -     -    1s
     0     0    2.06379    0  325          -    2.06379      -     -    1s
     0     0    2.16574    0  299          -    2.16574      -     -    2s
H    0     0                       3.2860116    2.16574  34.1%     -    4s
H    0     0                       3.2643668    2.16574  33.7%     -    7s
     0     0    2.17114    0  303    3.26437    2.17114  33.5%     -    7s
     0     0    2.23866    0  337    3.26437    2.23866  31.4%     -    8s
     0     0    2.26075    0  316    3.26437    2.26075  30.7%     -   11s
     0     0    2.27037    0  327    3.26437    2.27037  30.4%     -   11s
     0     0    2.27119    0  333    3.26437    2.27119  30.4%     -   11s
     0     0    2.27130    0  335    3.26437    2.27130  30.4%     -   11s
     0     0    2.31057    0  351    3.26437    2.31057  29.2%     -   12s
     0     0    2.33760    0  333    3.26437    2.33760  28.4%     -   12s
     0     0    2.34491    0  321    3.26437    2.34491  28.2%     -   12s
     0     0    2.34571    0  300    3.26437    2.34571  28.1%     -   12s
     0     0    2.34591    0  295    3.26437    2.34591  28.1%     -   12s
     0     0    2.35353    0  322    3.26437    2.35353  27.9%     -   13s
     0     0    2.35525    0  332    3.26437    2.35525  27.8%     -   15s
     0     0    2.35609    0  331    3.26437    2.35609  27.8%     -   15s
     0     0    2.35632    0  315    3.26437    2.35632  27.8%     -   15s
     0     0    2.35641    0  318    3.26437    2.35641  27.8%     -   15s
     0     0    2.36668    0  272    3.26437    2.36668  27.5%     -   16s
     0     0    2.36900    0  312    3.26437    2.36900  27.4%     -   18s
     0     0    2.36938    0  297    3.26437    2.36938  27.4%     -   18s
     0     0    2.36963    0  320    3.26437    2.36963  27.4%     -   18s
     0     0    2.36972    0  293    3.26437    2.36972  27.4%     -   18s
     0     0    2.37483    0  328    3.26437    2.37483  27.2%     -   18s
     0     0    2.37665    0  371    3.26437    2.37665  27.2%     -   21s
     0     0    2.37720    0  336    3.26437    2.37720  27.2%     -   22s
     0     0    2.37729    0  361    3.26437    2.37729  27.2%     -   22s
     0     0    2.37866    0  341    3.26437    2.37866  27.1%     -   22s
     0     0    2.37928    0  356    3.26437    2.37928  27.1%     -   27s
     0     0    2.37942    0  355    3.26437    2.37942  27.1%     -   27s
     0     0    2.38588    0  380    3.26437    2.38588  26.9%     -   27s
     0     0    2.38893    0  367    3.26437    2.38893  26.8%     -   27s
     0     0    2.38958    0  388    3.26437    2.38958  26.8%     -   27s
     0     0    2.38993    0  403    3.26437    2.38993  26.8%     -   27s
     0     0    2.39022    0  394    3.26437    2.39022  26.8%     -   27s
     0     0    2.39036    0  383    3.26437    2.39036  26.8%     -   27s
     0     0    2.40128    0  370    3.26437    2.40128  26.4%     -   28s
     0     0    2.40449    0  380    3.26437    2.40449  26.3%     -   28s
     0     0    2.40524    0  397    3.26437    2.40524  26.3%     -   28s
     0     0    2.40563    0  428    3.26437    2.40563  26.3%     -   28s
     0     0    2.40583    0  407    3.26437    2.40583  26.3%     -   28s
     0     0    2.41272    0  380    3.26437    2.41272  26.1%     -   29s
     0     0    2.41619    0  367    3.26437    2.41619  26.0%     -   29s
     0     0    2.41712    0  411    3.26437    2.41712  26.0%     -   29s
     0     0    2.41739    0  373    3.26437    2.41739  25.9%     -   29s
     0     0    2.42099    0  418    3.26437    2.42099  25.8%     -   29s
     0     0    2.42223    0  387    3.26437    2.42223  25.8%     -   30s
     0     0    2.42342    0  453    3.26437    2.42342  25.8%     -   30s
     0     0    2.42386    0  451    3.26437    2.42386  25.7%     -   30s
     0     0    2.42396    0  448    3.26437    2.42396  25.7%     -   30s
     0     0    2.42733    0  412    3.26437    2.42733  25.6%     -   30s
     0     0    2.42872    0  424    3.26437    2.42872  25.6%     -   30s
     0     0    2.42917    0  402    3.26437    2.42917  25.6%     -   30s
     0     0    2.42936    0  436    3.26437    2.42936  25.6%     -   30s
     0     0    2.43118    0  405    3.26437    2.43118  25.5%     -   31s
     0     0    2.43184    0  483    3.26437    2.43184  25.5%     -   31s
     0     0    2.43219    0  458    3.26437    2.43219  25.5%     -   31s
     0     0    2.43222    0  455    3.26437    2.43222  25.5%     -   31s
     0     0    2.43485    0  384    3.26437    2.43485  25.4%     -   31s
     0     0    2.43560    0  440    3.26437    2.43560  25.4%     -   31s
     0     0    2.43582    0  406    3.26437    2.43582  25.4%     -   31s
     0     0    2.43619    0  400    3.26437    2.43619  25.4%     -   32s
     0     0    2.43619    0  398    3.26437    2.43619  25.4%     -   35s
     0     2    2.43619    0  398    3.26437    2.43619  25.4%     -   35s
    15    17    2.44394   13  340    3.26437    2.43708  25.3%   446   40s
H   27    27                       3.2459652    2.43708  24.9%   467   55s
    47    49    2.51002   38  313    3.24597    2.43708  24.9%   546   60s
    82    84    2.59074   67  304    3.24597    2.43708  24.9%   494   65s
   102   104    2.57343   83  263    3.24597    2.43708  24.9%   530   79s
   106   108    2.58195   87  279    3.24597    2.43708  24.9%   526   80s
   155   157    2.73809  126  263    3.24597    2.43708  24.9%   499   85s
   214   216    2.94389  172  226    3.24597    2.43708  24.9%   470   90s
   311   307    3.19456  252  104    3.24597    2.43708  24.9%   412   95s
   384   362    2.58938   28  322    3.24597    2.43723  24.9%   387  100s
   428   406    2.72053   64  266    3.24597    2.43723  24.9%   400  105s
   494   472    2.78766  119  233    3.24597    2.43723  24.9%   400  110s
H  510   486                       3.2401390    2.43723  24.8%   409  118s
   511   487    3.17429  124  398    3.24014    2.43723  24.8%   408  120s
   514   489    2.89845   97  281    3.24014    2.43723  24.8%   405  125s
   518   492    2.97213  198  318    3.24014    2.43723  24.8%   402  131s
   525   496    2.99343  204  425    3.24014    2.45761  24.2%   397  135s
   532   501    2.54550    6  414    3.24014    2.46881  23.8%   392  140s
   540   506    2.74574   94  416    3.24014    2.47727  23.5%   386  145s
H  541   481                       3.2401390    2.47862  23.5%   385  159s
   544   483    2.52670   66  368    3.24014    2.48039  23.4%   383  160s
   552   488    2.51836   63  433    3.24014    2.48746  23.2%   377  165s
   561   494    2.55921   14  481    3.24014    2.49460  23.0%   371  170s
   571   501    3.19853  258  513    3.24014    2.50052  22.8%   365  175s
   580   507    2.52670   66  435    3.24014    2.50585  22.7%   359  180s
   590   514    2.53209   50  488    3.24014    2.51086  22.5%   353  185s
   599   520    2.71031  107  455    3.24014    2.51572  22.4%   348  190s
   607   525    3.01946  124  463    3.24014    2.52013  22.2%   343  195s
   615   530    2.59467   30  528    3.24014    2.52684  22.0%   339  200s
   622   535    2.69983   98  506    3.24014    2.52995  21.9%   335  205s
   631   541    2.89280  108  424    3.24014    2.53273  21.8%   330  210s
   639   546    3.01946  124  507    3.24014    2.53531  21.8%   326  215s
   646   551    2.74892   98  458    3.24014    2.53843  21.7%   323  220s
   653   556    2.70659   52  550    3.24014    2.54099  21.6%   319  225s
   660   560    2.72264   66  491    3.24014    2.54398  21.5%   316  230s
   667   565    2.91904  184  496    3.24014    2.54562  21.4%   312  235s
   676   571    2.70899  102  490    3.24014    2.54781  21.4%   308  240s
   684   576    2.54938    6  434    3.24014    2.54938  21.3%   305  245s
   692   582    3.21754  272  492    3.24014    2.55090  21.3%   301  250s
   699   586    2.71031  107  515    3.24014    2.55255  21.2%   298  255s
   706   591    2.70537   96  522    3.24014    2.55432  21.2%   295  260s
   716   599    2.73096  123  365    3.24014    2.55548  21.1%   509  266s
   719   601    2.83031  146  345    3.24014    2.55548  21.1%   506  270s
   721   603    2.63298   18  324    3.24014    2.55548  21.1%   505  276s
   726   606    2.57980   23  479    3.24014    2.55548  21.1%   502  280s
   733   611    2.55732   16  400    3.24014    2.55732  21.1%   497  285s
H  734   580                       3.2043783    2.55780  20.2%   496  298s

Cutting planes:
  Gomory: 2
  Cover: 33
  Implied bound: 4
  Projected implied bound: 1
  Clique: 13
  MIR: 331
  StrongCG: 3
  Flow cover: 733
  RLT: 25
  Relax-and-lift: 304

Explored 738 nodes (438605 simplex iterations) in 300.00 seconds
Thread count was 1 (of 4 available processors)

Solution count 6: 3.20438 3.24014 3.24014 ... 3.28601

Time limit reached
Best objective 3.204378294124e+00, best bound 2.558294140159e+00, gap 20.1625%
